
n_res = 6;
rcap = [45, 38, 544, 488, 516, 540];
rtype = [1, 1, 2, 2, 2, 2];
n_tasks = 50;
modes =  [{1, 2, 3, 4, 5, 6}, {7, 8, 9, 10, 11, 12}, {13, 14, 15, 16, 17, 18}, {19, 20, 21, 22, 23, 24}, {25, 26, 27, 28, 29, 30}, {31, 32, 33, 34, 35, 36}, {37, 38, 39, 40, 41, 42}, {43, 44, 45, 46, 47, 48}, {49, 50, 51, 52, 53, 54}, {55, 56, 57, 58, 59, 60}, {61, 62, 63, 64, 65, 66}, {67, 68, 69, 70, 71, 72}, {73, 74, 75, 76, 77, 78}, {79, 80, 81, 82, 83, 84}, {85, 86, 87, 88, 89, 90}, {91, 92, 93, 94, 95, 96}, {97, 98, 99, 100, 101, 102}, {103, 104, 105, 106, 107, 108}, {109, 110, 111, 112, 113, 114}, {115, 116, 117, 118, 119, 120}, {121, 122, 123, 124, 125, 126}, {127, 128, 129, 130, 131, 132}, {133, 134, 135, 136, 137, 138}, {139, 140, 141, 142, 143, 144}, {145, 146, 147, 148, 149, 150}, {151, 152, 153, 154, 155, 156}, {157, 158, 159, 160, 161, 162}, {163, 164, 165, 166, 167, 168}, {169, 170, 171, 172, 173, 174}, {175, 176, 177, 178, 179, 180}, {181, 182, 183, 184, 185, 186}, {187, 188, 189, 190, 191, 192}, {193, 194, 195, 196, 197, 198}, {199, 200, 201, 202, 203, 204}, {205, 206, 207, 208, 209, 210}, {211, 212, 213, 214, 215, 216}, {217, 218, 219, 220, 221, 222}, {223, 224, 225, 226, 227, 228}, {229, 230, 231, 232, 233, 234}, {235, 236, 237, 238, 239, 240}, {241, 242, 243, 244, 245, 246}, {247, 248, 249, 250, 251, 252}, {253, 254, 255, 256, 257, 258}, {259, 260, 261, 262, 263, 264}, {265, 266, 267, 268, 269, 270}, {271, 272, 273, 274, 275, 276}, {277, 278, 279, 280, 281, 282}, {283, 284, 285, 286, 287, 288}, {289, 290, 291, 292, 293, 294}, {295, 296, 297, 298, 299, 300}];
succ =  [{47, 46, 42, 33, 31, 23, 20, 17, 16, 13}, {50, 49, 45, 43, 41, 39, 33, 30, 27, 23, 22, 18}, {48, 46, 45, 43, 31, 30, 28, 27, 23, 13}, {46, 45, 44, 42, 31, 23, 22, 17, 16}, {49, 47, 42, 28, 23, 17, 13}, {48, 47, 46, 45, 43, 42, 40, 38, 31, 29, 28, 25, 24}, {47, 45, 44, 42, 41, 38, 33, 32, 31, 30, 23, 22}, {48, 44, 42, 40, 39, 38, 31, 30, 22, 21}, {45, 42, 41, 38, 31, 23, 17}, {50, 46, 43, 42, 39, 38, 37, 31, 26}, {43, 40, 38, 35, 28, 26, 22}, {47, 41, 40, 39, 38, 37, 36, 35, 29}, {44, 40, 39, 38, 32, 22}, {45, 43, 39, 31, 30, 27}, {49, 46, 42, 40, 31, 28}, {38, 35, 30, 28, 26}, {39, 37, 36, 35, 30, 29}, {47, 44, 42, 36, 35, 29}, {46, 39, 37, 35, 29}, {43, 40, 37, 35, 34}, {43, 36, 35, 29}, {37, 36, 34}, {40, 36, 34}, {39, 36, 34}, {37, 35, 34}, {36, 29}, {38, 29}, {41, 36}, {34}, {34}, {35}, {35}, {35}, {}, {}, {}, {}, {}, {}, {}, {}, {}, {}, {}, {}, {}, {}, {}, {}, {}];
n_opt = 300;
dur = [3, 5, 6, 7, 10, 11, 4, 6, 7, 8, 11, 20, 1, 8, 9, 10, 18, 19, 4, 6, 11, 12, 13, 14, 1, 5, 6, 9, 12, 13, 4, 5, 8, 11, 12, 16, 3, 8, 11, 14, 17, 18, 3, 4, 5, 6, 7, 12, 1, 2, 9, 10, 16, 19, 1, 3, 5, 7, 13, 18, 1, 6, 7, 9, 15, 19, 6, 8, 9, 11, 16, 20, 7, 12, 13, 14, 16, 19, 3, 5, 7, 12, 13, 14, 1, 2, 7, 10, 11, 20, 4, 5, 7, 13, 18, 19, 4, 11, 12, 13, 16, 20, 7, 15, 16, 17, 18, 19, 6, 7, 8, 9, 10, 16, 5, 8, 11, 13, 14, 17, 1, 3, 5, 6, 10, 15, 1, 2, 7, 13, 16, 17, 6, 7, 8, 9, 19, 20, 1, 3, 4, 5, 17, 19, 2, 4, 5, 9, 17, 18, 4, 6, 12, 14, 16, 18, 1, 2, 4, 5, 11, 12, 2, 6, 7, 11, 12, 18, 2, 4, 5, 12, 14, 20, 1, 9, 11, 12, 13, 16, 3, 6, 9, 11, 13, 18, 5, 8, 9, 10, 15, 17, 3, 4, 5, 10, 11, 16, 2, 8, 14, 16, 17, 19, 1, 3, 6, 7, 18, 19, 2, 4, 5, 6, 7, 16, 2, 3, 9, 14, 15, 19, 7, 8, 9, 13, 19, 20, 3, 6, 7, 16, 19, 20, 5, 6, 9, 11, 12, 14, 5, 6, 11, 12, 13, 18, 1, 2, 4, 5, 6, 20, 3, 5, 6, 9, 14, 15, 2, 3, 4, 7, 13, 14, 2, 3, 4, 9, 10, 12, 1, 7, 10, 11, 17, 19, 1, 13, 16, 18, 19, 20, 10, 11, 15, 16, 18, 19, 4, 8, 13, 16, 17, 18, 4, 6, 10, 11, 12, 16];
rreq = [|3, 3, 3, 3, 2, 2, 5, 4, 4, 4, 3, 3, 4, 3, 3, 2, 2, 2, 2, 1, 1, 1, 1, 1, 3, 2, 2, 2, 1, 1, 2, 2, 2, 1, 1, 1, 5, 4, 4, 4, 4, 4, 2, 2, 2, 2, 1, 1, 4, 3, 2, 2, 1, 1, 4, 4, 3, 2, 1, 1, 4, 3, 3, 3, 2, 1, 5, 4, 4, 3, 3, 2, 3, 3, 3, 2, 2, 2, 2, 1, 1, 1, 1, 1, 3, 3, 3, 2, 1, 1, 5, 4, 4, 3, 2, 2, 4, 4, 4, 3, 2, 2, 4, 4, 3, 3, 2, 1, 2, 2, 2, 2, 1, 1, 1, 1, 1, 1, 1, 1, 5, 4, 3, 3, 2, 1, 1, 1, 1, 1, 1, 1, 5, 4, 4, 3, 3, 3, 4, 4, 4, 4, 4, 4, 2, 2, 2, 2, 2, 2, 5, 4, 3, 2, 2, 1, 5, 4, 3, 3, 2, 2, 2, 1, 1, 1, 1, 1, 4, 4, 4, 3, 3, 3, 4, 3, 3, 3, 3, 3, 3, 3, 3, 3, 3, 3, 5, 3, 3, 3, 1, 1, 5, 5, 5, 5, 5, 5, 4, 4, 4, 3, 3, 2, 5, 3, 3, 3, 1, 1, 5, 4, 4, 4, 4, 4, 3, 3, 3, 3, 2, 2, 4, 4, 4, 3, 3, 3, 5, 4, 3, 2, 1, 1, 2, 2, 2, 1, 1, 1, 4, 4, 4, 4, 4, 4, 3, 3, 3, 3, 3, 3, 1, 1, 1, 1, 1, 1, 4, 4, 4, 3, 3, 3, 4, 4, 4, 4, 4, 4, 3, 3, 3, 3, 3, 3, 3, 3, 3, 3, 3, 3, 4, 4, 4, 4, 4, 4, 5, 4, 4, 4, 4, 4, 3, 3, 3, 2, 1, 1
 |2, 2, 2, 2, 2, 2, 2, 2, 2, 1, 1, 1, 5, 4, 4, 4, 4, 4, 4, 4, 4, 4, 4, 4, 3, 3, 3, 3, 3, 3, 4, 4, 3, 3, 3, 2, 2, 2, 2, 1, 1, 1, 2, 2, 2, 1, 1, 1, 4, 4, 4, 4, 4, 4, 2, 2, 2, 2, 2, 2, 3, 2, 2, 2, 1, 1, 3, 3, 3, 2, 1, 1, 4, 3, 3, 2, 1, 1, 3, 3, 3, 3, 3, 3, 4, 4, 4, 3, 3, 2, 3, 3, 3, 3, 3, 3, 3, 3, 3, 2, 2, 2, 3, 3, 3, 3, 3, 3, 2, 2, 2, 2, 2, 2, 2, 2, 2, 2, 2, 2, 2, 1, 1, 1, 1, 1, 4, 4, 4, 4, 4, 4, 4, 4, 4, 4, 4, 4, 3, 3, 3, 3, 3, 3, 2, 1, 1, 1, 1, 1, 3, 2, 2, 2, 2, 2, 5, 4, 3, 3, 3, 2, 3, 3, 3, 3, 2, 2, 3, 3, 3, 3, 3, 3, 3, 2, 2, 2, 1, 1, 3, 2, 2, 2, 2, 2, 4, 3, 3, 3, 2, 2, 2, 2, 2, 2, 2, 2, 4, 3, 3, 3, 3, 3, 3, 3, 2, 2, 2, 1, 3, 2, 2, 2, 2, 2, 3, 2, 2, 1, 1, 1, 3, 3, 3, 3, 2, 2, 2, 2, 2, 2, 2, 2, 1, 1, 1, 1, 1, 1, 4, 4, 3, 3, 2, 2, 2, 2, 2, 2, 2, 2, 2, 2, 2, 1, 1, 1, 2, 2, 2, 1, 1, 1, 3, 2, 2, 2, 1, 1, 4, 3, 2, 2, 2, 1, 4, 4, 4, 4, 3, 3, 3, 2, 2, 1, 1, 1, 5, 5, 5, 5, 5, 5, 4, 4, 3, 2, 1, 1
 |8, 8, 8, 8, 8, 8, 12, 11, 9, 8, 4, 4, 6, 6, 6, 6, 6, 6, 7, 6, 5, 3, 3, 2, 9, 9, 9, 9, 9, 9, 18, 17, 14, 11, 8, 3, 17, 15, 13, 9, 7, 6, 16, 12, 11, 9, 6, 5, 7, 5, 4, 3, 3, 1, 18, 18, 15, 14, 11, 9, 13, 12, 11, 9, 9, 8, 17, 17, 17, 16, 16, 16, 8, 7, 7, 7, 6, 6, 15, 14, 12, 12, 10, 10, 17, 16, 14, 14, 13, 12, 18, 17, 17, 15, 14, 13, 19, 19, 19, 19, 19, 19, 4, 4, 4, 4, 4, 4, 13, 13, 12, 12, 11, 10, 18, 17, 16, 15, 14, 14, 12, 11, 11, 11, 10, 9, 19, 18, 18, 18, 16, 16, 11, 8, 8, 7, 3, 3, 15, 13, 11, 11, 10, 8, 17, 15, 14, 14, 12, 10, 17, 15, 15, 13, 12, 12, 13, 11, 11, 11, 9, 9, 15, 12, 11, 7, 4, 2, 16, 12, 12, 9, 6, 5, 15, 14, 13, 13, 12, 11, 13, 11, 8, 7, 4, 3, 18, 17, 14, 14, 12, 10, 6, 6, 6, 6, 6, 6, 17, 16, 15, 15, 14, 14, 17, 14, 13, 10, 7, 5, 14, 14, 14, 14, 13, 13, 13, 11, 9, 6, 4, 1, 15, 13, 12, 10, 9, 7, 16, 15, 14, 13, 13, 12, 9, 8, 8, 7, 7, 7, 18, 18, 18, 17, 17, 17, 10, 8, 7, 6, 5, 4, 16, 16, 16, 16, 16, 16, 19, 13, 12, 8, 7, 2, 14, 14, 14, 14, 14, 14, 18, 12, 10, 8, 4, 2, 5, 4, 3, 2, 2, 1, 12, 10, 8, 6, 5, 4, 13, 12, 11, 11, 10, 9, 9, 9, 9, 9, 9, 9
 |11, 9, 7, 7, 6, 5, 16, 16, 15, 13, 12, 12, 18, 16, 11, 10, 9, 4, 11, 9, 7, 6, 4, 4, 17, 15, 13, 11, 9, 9, 15, 13, 12, 11, 10, 7, 14, 12, 10, 8, 6, 5, 8, 8, 7, 6, 5, 4, 13, 13, 11, 9, 6, 4, 8, 8, 7, 6, 3, 2, 11, 8, 8, 7, 3, 3, 19, 15, 14, 11, 8, 6, 11, 10, 9, 8, 6, 6, 3, 3, 3, 3, 2, 2, 18, 17, 17, 16, 15, 15, 8, 8, 6, 5, 4, 4, 13, 12, 12, 11, 11, 11, 14, 11, 11, 10, 8, 5, 15, 12, 8, 6, 5, 1, 14, 13, 10, 10, 7, 7, 18, 16, 16, 15, 14, 12, 16, 16, 15, 15, 15, 14, 8, 8, 7, 4, 2, 1, 10, 10, 9, 8, 8, 7, 4, 3, 3, 2, 2, 1, 20, 16, 13, 10, 8, 8, 15, 12, 11, 10, 10, 8, 19, 16, 13, 12, 8, 7, 17, 14, 9, 8, 3, 2, 3, 3, 3, 2, 2, 2, 15, 11, 10, 7, 7, 5, 12, 12, 12, 12, 12, 12, 12, 11, 11, 11, 11, 11, 14, 12, 12, 10, 9, 7, 8, 6, 5, 5, 4, 3, 17, 17, 16, 15, 13, 13, 12, 10, 9, 8, 7, 7, 16, 13, 13, 12, 10, 10, 19, 19, 18, 18, 17, 16, 18, 16, 15, 14, 12, 11, 4, 4, 4, 4, 3, 3, 3, 3, 3, 3, 3, 3, 11, 10, 8, 6, 4, 1, 17, 14, 13, 12, 8, 5, 18, 17, 17, 16, 15, 15, 14, 12, 11, 10, 10, 8, 18, 16, 15, 13, 11, 8, 7, 7, 7, 7, 7, 7, 8, 7, 7, 7, 7, 7, 11, 9, 8, 8, 6, 5
 |12, 9, 8, 7, 7, 5, 10, 9, 8, 6, 5, 3, 17, 14, 13, 12, 10, 8, 8, 7, 7, 6, 6, 6, 14, 13, 11, 10, 10, 9, 17, 15, 14, 12, 9, 8, 13, 12, 10, 10, 8, 7, 10, 10, 10, 9, 9, 9, 13, 13, 13, 12, 12, 12, 8, 7, 7, 7, 7, 7, 13, 12, 9, 9, 6, 5, 14, 13, 10, 9, 7, 4, 7, 6, 4, 4, 2, 2, 16, 15, 15, 14, 11, 11, 13, 11, 11, 11, 10, 9, 17, 17, 17, 16, 15, 15, 17, 17, 16, 16, 14, 14, 9, 8, 7, 5, 5, 4, 10, 9, 8, 8, 7, 7, 16, 14, 14, 11, 10, 9, 12, 12, 12, 12, 12, 12, 18, 16, 15, 12, 12, 9, 19, 19, 19, 19, 19, 19, 16, 13, 13, 12, 9, 8, 18, 14, 12, 9, 9, 6, 6, 6, 6, 5, 4, 4, 15, 13, 12, 9, 7, 5, 10, 10, 8, 8, 6, 6, 8, 7, 6, 6, 5, 5, 15, 15, 15, 15, 14, 14, 14, 14, 14, 13, 12, 12, 6, 6, 5, 3, 2, 1, 3, 3, 2, 2, 2, 1, 13, 13, 8, 7, 3, 3, 12, 11, 10, 9, 8, 7, 15, 14, 12, 9, 5, 4, 9, 9, 9, 9, 9, 9, 18, 17, 16, 14, 14, 13, 15, 15, 15, 14, 14, 13, 15, 14, 13, 13, 11, 10, 8, 6, 6, 5, 5, 4, 18, 15, 12, 11, 8, 5, 13, 11, 10, 9, 8, 6, 12, 12, 11, 9, 9, 7, 17, 15, 15, 14, 13, 13, 7, 6, 5, 5, 3, 3, 14, 11, 8, 6, 6, 4, 12, 10, 9, 6, 6, 4, 19, 16, 14, 14, 11, 10, 17, 16, 15, 15, 15, 14
 |18, 18, 14, 13, 10, 10, 16, 14, 13, 11, 9, 6, 19, 14, 14, 12, 7, 4, 13, 12, 11, 10, 9, 8, 14, 13, 13, 13, 12, 12, 17, 15, 15, 14, 14, 13, 5, 4, 3, 3, 2, 1, 11, 11, 10, 10, 9, 8, 20, 19, 19, 19, 18, 18, 18, 18, 17, 15, 14, 14, 18, 15, 14, 9, 8, 4, 8, 7, 6, 6, 6, 5, 18, 17, 16, 14, 12, 11, 16, 13, 12, 9, 6, 3, 10, 10, 7, 6, 4, 2, 20, 15, 12, 8, 8, 3, 14, 13, 11, 10, 10, 8, 19, 15, 14, 11, 9, 7, 9, 8, 8, 6, 4, 4, 14, 13, 13, 11, 11, 10, 1, 1, 1, 1, 1, 1, 17, 16, 16, 15, 15, 15, 9, 8, 8, 7, 7, 6, 19, 17, 17, 16, 16, 15, 16, 15, 12, 10, 7, 5, 2, 2, 2, 2, 2, 2, 19, 18, 17, 16, 13, 13, 15, 14, 12, 11, 10, 10, 13, 13, 12, 12, 11, 10, 13, 11, 8, 6, 5, 4, 17, 16, 16, 16, 16, 16, 19, 18, 18, 17, 16, 16, 13, 11, 10, 8, 7, 5, 9, 9, 8, 6, 5, 5, 17, 17, 13, 11, 11, 8, 11, 8, 8, 7, 5, 5, 14, 11, 11, 9, 8, 6, 12, 10, 10, 8, 7, 6, 17, 16, 15, 15, 13, 13, 11, 10, 10, 9, 7, 7, 12, 11, 11, 11, 10, 10, 19, 18, 18, 16, 15, 14, 13, 11, 11, 9, 9, 7, 19, 17, 16, 14, 14, 13, 9, 8, 6, 5, 4, 3, 17, 16, 16, 15, 15, 15, 3, 3, 3, 3, 3, 3, 7, 7, 5, 5, 4, 3, 18, 15, 15, 13, 11, 9, 3, 3, 3, 3, 3, 3|];